\ LP format example
Maximize
  x1v1 + x2v2 + x3v3 + x4v4 + x5v5 + x6v6 + x7v7 + x8v8 + x9v9 + x10v10 + x11v11 + x12v12
Subject To
  c: x1p1 + x2p2 + x3p3 + x4p4 + x5p5 + x6p6 + x7p7 + x8p8 + x9p9 + x10p10 + x11p11 + x12p12 <= 20
Bounds
  p1=11
  p2=7
  p3=5
  p4=5
  p5=4
  p6=3
  p7=3
  p8=2
  p9=2
  p10=2
  p11=2
  p12=1

  v1=20
  v2=10
  v3=25
  v4=11
  v5=5
  v6=50
  v7=15
  v8=12
  v9=6
  v10=5
  v11=4
  v12=30

Generals
  p1
  p2
  p3
  p4
  p5
  p6
  p7
  p8
  p9
  p10
  p11
  p12

  v1
  v2
  v3
  v4
  v5
  v6
  v7
  v8
  v9
  v10
  v11
  v12

Binary
  x1
  x2
  x3
  x4
  x5
  x6
  x7
  x8
  x9
  x10
  x11
  x12 
End
